15
45
782
824
604
751
713
608
594
646
814
646
701
774
840
686
1014
204	214
545	555
928	938
615	625
609	619
801	811
221	231
756	766
13	23
173	183
714	724
109	119
648	658
350	360
794	804
723	733
894	904
518	528
86	96
106	116
68	78
793	803
303	313
618	628
558	568
550	560
675	685
202	212
756	766
73	83
604	614
481	491
817	827
475	485
180	190
31	41
386	396
902	912
148	158
460	470
442	452
439	449
389	399
897	907
941	951
